-885 -937 0
56 -935 -936 -937 0
-934 -56 31 -52 -53 0
-935 -936 -937 0
d 56 -935 -936 -937 0
-936 -937 0
d -935 -936 -937 0
-937 0
-53 0
1 0
885 0
105 0
-833 0
-157 0
936 0
-884 0
52 0
46 0
-818 0
-104 0
-869 0
-68 0
-922 0
-119 0
-728 0
-98 0
-773 0
-863 0
-779 0
-832 0
-158 0
-209 0
37 0
45 0
900 0
90 0
930 0
31 0
39 0
-593 0
-89 0
-629 0
-764 0
-854 0
-638 0
-644 0
-682 0
-697 0
-293 0
-308 0
-344 0
-713 0
-743 0
-749 0
-97 0
-547 0
-637 0
-757 0
-772 0
-862 0
-758 0
-802 0
-817 0
-173 0
-188 0
-224 0
-83 0
-848 0
-142 0
-38 0
-907 0
-113 0
-338 0
-878 0
-428 0
-203 0
-218 0
-503 0
-533 0
-623 0
-539 0
-554 0
-592 0
-607 0
-383 0
-398 0
-434 0
-548 0
-653 0
-91 0
-541 0
-661 0
-712 0
-727 0
-263 0
-278 0
-314 0
-856 0
-674 0
-659 0
-631 0
-766 0
-668 0
-751 0
-667 0
921 0
29 0
33 0
0
